159
100
60
61
30
13
70
32
6
4
66
8
44
8
3
19
29
24
61
8
49
43
16
54
49
40
34
36
10
32
56
3
15
10
9
4
39
64
9
10
8
58
3
7
14
50
40
70
4
35
2
40
31
1
8
36
1
55
9
26
41
18
7
41
5
36
35
51
9
22
60
74
2
35
8
33
26
49
64
37
7
20
27
1
1
12
19
34
26
48
13
40
3
30
42
65
19
15
30
63
2
42
33
32
8
9
12
14
25
30
71
3
8
38
4
30
4
29
28
7
32
15
13
20
9
5
19
12
19
17
26
34
70
55
8
17
60
69
1
24
32
24
4
56
61
18
25
22
70
62
60
9
64
2
35
36
12
43
7
56
54
